
Welcome to IBM(R) ILOG(R) CPLEX(R) Interactive Optimizer 12.7.1.0
  with Simplex, Mixed Integer & Barrier Optimizers
5725-A06 5725-A29 5724-Y48 5724-Y49 5724-Y54 5724-Y55 5655-Y21
Copyright IBM Corp. 1988, 2017.  All Rights Reserved.

Type 'help' for a list of available commands.
Type 'help' followed by a command name for more
information on commands.

CPLEX> New value for default parallel thread count: 1
CPLEX> New value for time limit in seconds: 3600
CPLEX> Problem 'tsp225_m33.lp' read.
Read time = 3.68 sec. (183.28 ticks)
CPLEX> CPXPARAM_TimeLimit                               3600
CPXPARAM_Threads                                 1
CPXPARAM_Read_APIEncoding                        "UTF-8"
Tried aggregator 1 time.
Reduced MIP has 57891 rows, 1663425 columns, and 10049569 nonzeros.
Reduced MIP has 1663200 binaries, 224 generals, 0 SOSs, and 0 indicators.
Presolve time = 5.07 sec. (3895.95 ticks)
Tried aggregator 1 time.
Reduced MIP has 57891 rows, 1663425 columns, and 10049569 nonzeros.
Reduced MIP has 1663200 binaries, 224 generals, 0 SOSs, and 0 indicators.
Presolve time = 10.32 sec. (5616.71 ticks)
Probing time = 2.22 sec. (561.26 ticks)
Cover probing fixed 0 vars, tightened 1 bounds.
Clique table members: 2237557.
MIP emphasis: balance optimality and feasibility.
MIP search method: dynamic search.
Parallel mode: none, using 1 thread.
Root relaxation solution time = 3560.24 sec. (4092512.56 ticks)

        Nodes                                         Cuts/
   Node  Left     Objective  IInf  Best Integer    Best Bound    ItCnt     Gap

      0     0  -1.00000e+37     0                      0.0000   255765         

Root node processing (before b&c):
  Real time             = 3600.13 sec. (4113401.57 ticks)
Sequential b&c:
  Real time             =    0.00 sec. (0.00 ticks)
                          ------------
Total (root+branch&cut) = 3600.13 sec. (4113401.57 ticks)


MIP - Time limit exceeded, no integer solution.
Current MIP best bound =  0.0000000000e+00 (gap is infinite)
Solution time = 3600.13 sec.  Iterations = 255765  Nodes = 0
Deterministic time = 4113406.33 ticks  (1142.57 ticks/sec)

CPLEX> No integer feasible solution exists.
CPLEX> 